1586347
43,13,9,17,56,32,51,21,30,27,49,35,58,15,62,23,60,2,20,37,63,66,6,42,45,33,54,25,65,10,5,40,29,24,28,59,22,48,18,4,39,0,11,41,55,31,53,12,46,3,19,64,47,1,44,26,16,8,57,14,7,67,34,50,38,61,36,52
